15 965
539 7 515 7 439 11
525 7 482 7 365 7 115 9 943 13
525 7 482 7 362 7 118 9 855 11 673 18
525 7 479 7 343 7 85 9 886 11 702 15 553 22
525 7 445 7 357 7 195 9 48 11 872 15 715 22
535 8 492 8 398 9 231 10 69 14 899 50
535 8 493 8 407 9 310 10 223 16 94 22
525 7 479 7 355 7 106 9 927 13
525 7 479 7 355 7 106 9 927 13
533 7
533 7
533 7
533 7
533 7
533 7
